db/data/710924215534840332771627591223325489.z3.out
-------------------
2500.114305633
